500
300 300
1 210 358
2 210 920
3 210 594
4 210 854
5 210 871
6 210 90
7 209 872
8 209 638
9 209 938
10 208 921
11 208 493
12 208 273
13 208 388
14 208 553
15 207 64
16 207 432
17 206 646
18 206 413
19 206 116
20 206 143
21 205 632
22 205 884
23 204 602
24 204 40
25 203 304
26 203 781
27 203 539
28 203 762
29 202 557
30 201 330
31 200 730
32 200 63
33 200 850
34 199 982
35 199 838
36 198 642
37 198 711
38 197 420
39 197 652
40 197 26
41 196 479
42 196 803
43 196 495
44 196 116
45 196 735
46 196 991
47 196 267
48 195 60
49 195 773
50 195 82
51 195 740
52 195 927
53 195 757
54 194 559
55 194 532
56 194 729
57 193 432
58 193 442
59 193 401
60 193 567
61 191 369
62 191 231
63 191 38
64 191 686
65 191 802
66 190 267
67 190 58
68 190 924
69 188 207
70 188 325
71 188 857
72 187 590
73 187 117
74 186 167
75 186 67
76 186 427
77 186 656
78 186 332
79 185 560
80 185 176
81 185 527
82 185 342
83 185 215
84 185 910
85 184 127
86 184 852
87 184 993
88 184 792
89 183 411
90 183 622
91 183 866
92 182 691
93 182 620
94 182 741
95 180 715
96 180 692
97 180 525
98 179 190
99 179 214
100 178 400
101 178 716
102 178 604
103 178 982
104 178 970
105 177 348
106 177 655
107 177 643
108 176 420
109 176 341
110 175 890
111 175 880
112 175 570
113 175 652
114 175 341
115 174 536
116 174 527
117 174 315
118 174 762
119 174 189
120 174 151
121 174 62
122 173 859
123 173 754
124 173 794
125 173 814
126 172 309
127 172 127
128 172 980
129 172 310
130 172 901
131 172 494
132 171 36
133 171 557
134 170 387
135 170 413
136 170 466
137 169 363
138 169 68
139 169 498
140 169 313
141 169 108
142 168 67
143 167 861
144 167 790
145 167 964
146 167 577
147 167 482
148 166 98
149 166 662
150 166 562
151 165 744
152 165 83
153 164 451
154 164 419
155 163 548
156 163 499
157 163 652
158 163 26
159 163 153
160 162 222
161 162 383
162 162 170
163 162 26
164 161 932
165 161 67
166 161 130
167 161 367
168 161 594
169 161 966
170 160 191
171 160 138
172 160 270
173 159 189
174 159 102
175 159 443
176 158 762
177 158 696
178 158 315
179 158 189
180 157 889
181 157 530
182 156 697
183 156 273
184 155 961
185 155 487
186 155 762
187 154 641
188 154 920
189 154 888
190 154 313
191 154 306
192 154 910
193 154 693
194 154 667
195 153 581
196 153 531
197 153 264
198 153 747
199 152 393
200 152 333
201 151 493
202 151 326
203 151 364
204 151 586
205 150 124
206 150 667
207 150 100
208 150 497
209 150 79
210 149 494
211 149 651
212 148 563
213 148 846
214 148 774
215 148 212
216 147 906
217 147 823
218 147 110
219 146 4
220 146 620
221 145 724
222 145 670
223 145 409
224 145 737
225 145 59
226 145 642
227 145 189
228 144 719
229 144 870
230 144 263
231 144 418
232 144 345
233 144 698
234 144 360
235 144 576
236 143 715
237 143 477
238 143 925
239 143 673
240 142 213
241 142 772
242 140 292
243 140 357
244 140 303
245 140 271
246 139 57
247 138 580
248 138 326
249 138 308
250 138 20
251 137 881
252 137 155
253 136 143
254 136 646
255 136 399
256 136 419
257 136 87
258 136 466
259 135 895
260 134 113
261 134 462
262 134 103
263 133 766
264 133 422
265 133 945
266 133 458
267 132 198
268 132 632
269 132 565
270 132 422
271 131 368
272 131 804
273 130 364
274 130 898
275 130 809
276 130 994
277 130 785
278 129 459
279 128 902
280 128 847
281 128 261
282 128 761
283 127 507
284 127 822
285 126 778
286 126 245
287 126 904
288 126 822
289 126 844
290 125 959
291 125 945
292 125 908
293 125 710
294 125 205
295 124 183
296 124 621
297 123 671
298 123 383
299 123 457
300 122 49
301 122 677
302 122 352
303 121 684
304 121 512
305 121 357
306 121 539
307 121 76
308 120 623
309 119 576
310 119 520
311 119 984
312 119 855
313 118 672
314 118 686
315 117 455
316 117 291
317 117 652
318 117 149
319 116 582
320 116 446
321 115 177
322 115 877
323 114 763
324 114 28
325 114 148
326 113 615
327 113 207
328 112 692
329 112 544
330 111 805
331 111 197
332 110 336
333 110 538
334 109 355
335 109 541
336 108 337
337 108 693
338 108 365
339 108 463
340 108 915
341 108 727
342 108 539
343 107 680
344 107 836
345 106 524
346 105 884
347 104 687
348 104 314
349 104 143
350 103 869
351 103 372
352 102 660
353 102 286
354 102 944
355 102 96
356 102 487
357 101 395
358 101 764
359 101 526
360 101 24
361 101 241
362 100 225
363 100 728
364 100 938
365 100 919
366 99 273
367 99 560
368 99 785
369 99 425
370 97 268
371 96 352
372 94 417
373 94 956
374 94 870
375 94 677
376 94 735
377 94 205
378 93 796
379 93 742
380 93 573
381 92 435
382 92 597
383 92 755
384 91 403
385 91 136
386 91 146
387 91 720
388 90 460
389 89 843
390 89 216
391 88 395
392 88 112
393 88 740
394 88 833
395 87 811
396 87 73
397 87 189
398 86 25
399 85 54
400 85 299
401 84 631
402 84 550
403 84 392
404 83 782
405 83 275
406 83 686
407 83 168
408 83 821
409 83 797
410 82 702
411 82 722
412 81 8
413 81 618
414 81 979
415 81 367
416 81 707
417 80 473
418 80 449
419 80 405
420 80 740
421 79 144
422 79 726
423 79 198
424 79 7
425 79 388
426 79 620
427 79 971
428 78 783
429 78 382
430 77 257
431 76 468
432 76 692
433 76 430
434 76 550
435 76 936
436 76 983
437 76 949
438 75 209
439 75 340
440 75 296
441 75 784
442 75 283
443 74 611
444 74 810
445 74 448
446 74 92
447 74 692
448 74 358
449 73 406
450 73 540
451 73 808
452 73 987
453 73 210
454 72 187
455 72 310
456 72 505
457 72 103
458 71 944
459 71 863
460 71 424
461 70 159
462 70 39
463 70 302
464 70 423
465 69 857
466 69 398
467 69 847
468 69 939
469 69 583
470 68 465
471 68 159
472 68 884
473 68 129
474 67 178
475 67 404
476 67 286
477 66 721
478 66 777
479 66 683
480 65 949
481 65 495
482 65 405
483 64 677
484 63 694
485 63 611
486 63 666
487 62 896
488 62 86
489 62 531
490 62 622
491 62 414
492 61 186
493 61 533
494 61 790
495 61 622
496 61 445
497 61 743
498 60 87
499 60 206
500 60 228
